100000101000001000101011010010100111010101001110110001010110000111010001011000011001100101011100100101001100111000011100000101111101000110010111110110100000101101011111011111010011110101010010100111001010000000110011110110001101000111111000001011010010001010000110110001100000010110111111011100000110101001100111010000101001101100001011100011001101100110111010101111110101111000001000010000100110010100100000110001010101100100000001011001100011101010101011111010111000100111000111001111010101000110111010101111110010110000010001111000000010101110100010001111000100100011110110010001110011100100100001010000100010111110101101001010011000111100010110011111111000101001010011